178 59 86 164 99 140 98 13 24 103 146 100 197 44 4 11 21 
199 32 120 
107 39 115 183 5 37 112 81 82 152 34 
28 196 42 144 173 162 46 118 18 47 48 145 25 20 97 74 190 101 54 17 66 111 114 
104 137 167 38 2 8 116 78 22 108 175 62 155 122 186 19 87 130 125 1 129 
132 171 67 198 41 182 33 128 177 61 84 53 56 69 160 147 195 75 165 109 58 
10 110 70 26 15 187 169 113 191 43 71 139 141 14 
188 166 143 126 138 131 50 72 193 124 85 68 
93 94 35 65 89 96 117 91 154 135 51 105 
64 200 153 102 12 192 194 127 181 172 168 157 52 
119 63 174 76 77 57 60 30 150 151 179 9 161 158 80 156 149 170 95 83 176 
6 189 90 73 180 121 163 7 23 
136 40 142 184 148 29 45 3 134 133 16 27 185 31 49 92 123 55 79 88 106 159 36 

